
(set-logic HORN)
(define-fun Z_2723 () Int 0)
(define-fun S_626 ((x Int)) Int (+ x 1))
(declare-fun diseqInt (Int Int) Bool)
(declare-fun unS_875 (Int Int) Bool)
(declare-fun isZ_562 (Int) Bool)
(declare-fun isS_562 (Int) Bool)
(assert (forall ((x_125903 Int))
	(unS_875 x_125903 (S_626 x_125903))))
(assert (isZ_562 Z_2723))
(assert (forall ((x_125905 Int))
	(isS_562 (S_626 x_125905))))
(assert (forall ((x_125906 Int))
	(diseqInt Z_2723 (S_626 x_125906))))
(assert (forall ((x_125907 Int))
	(diseqInt (S_626 x_125907) Z_2723)))
(assert (forall ((x_125908 Int) (x_125909 Int))
	(=> (diseqInt x_125908 x_125909) (diseqInt (S_626 x_125908) (S_626 x_125909)))))
(declare-fun add_471 (Int Int Int) Bool)
(declare-fun minus_458 (Int Int Int) Bool)
(declare-fun le_437 (Int Int) Bool)
(declare-fun ge_437 (Int Int) Bool)
(declare-fun lt_457 (Int Int) Bool)
(declare-fun gt_440 (Int Int) Bool)
(declare-fun mult_438 (Int Int Int) Bool)
(declare-fun div_437 (Int Int Int) Bool)
(declare-fun mod_439 (Int Int Int) Bool)
(assert (forall ((y_3187 Int))
	(add_471 y_3187 Z_2723 y_3187)))
(assert (forall ((x_125901 Int) (y_3187 Int) (r_654 Int))
	(=> (add_471 r_654 x_125901 y_3187) (add_471 (S_626 r_654) (S_626 x_125901) y_3187))))
(assert (forall ((y_3187 Int))
	(minus_458 Z_2723 Z_2723 y_3187)))
(assert (forall ((x_125901 Int) (y_3187 Int) (r_654 Int))
	(=> (minus_458 r_654 x_125901 y_3187) (minus_458 (S_626 r_654) (S_626 x_125901) y_3187))))
(assert (forall ((y_3187 Int))
	(le_437 Z_2723 y_3187)))
(assert (forall ((x_125901 Int) (y_3187 Int))
	(=> (le_437 x_125901 y_3187) (le_437 (S_626 x_125901) (S_626 y_3187)))))
(assert (forall ((y_3187 Int))
	(ge_437 y_3187 Z_2723)))
(assert (forall ((x_125901 Int) (y_3187 Int))
	(=> (ge_437 x_125901 y_3187) (ge_437 (S_626 x_125901) (S_626 y_3187)))))
(assert (forall ((y_3187 Int))
	(lt_457 Z_2723 (S_626 y_3187))))
(assert (forall ((x_125901 Int) (y_3187 Int))
	(=> (lt_457 x_125901 y_3187) (lt_457 (S_626 x_125901) (S_626 y_3187)))))
(assert (forall ((y_3187 Int))
	(gt_440 (S_626 y_3187) Z_2723)))
(assert (forall ((x_125901 Int) (y_3187 Int))
	(=> (gt_440 x_125901 y_3187) (gt_440 (S_626 x_125901) (S_626 y_3187)))))
(assert (forall ((y_3187 Int))
	(mult_438 Z_2723 Z_2723 y_3187)))
(assert (forall ((x_125901 Int) (y_3187 Int) (r_654 Int) (z_2724 Int))
	(=> (and (mult_438 r_654 x_125901 y_3187) (add_471 z_2724 r_654 y_3187)) (mult_438 z_2724 (S_626 x_125901) y_3187))))
(assert (forall ((x_125901 Int) (y_3187 Int))
	(=> (lt_457 x_125901 y_3187) (div_437 Z_2723 x_125901 y_3187))))
(assert (forall ((x_125901 Int) (y_3187 Int) (r_654 Int) (z_2724 Int))
	(=> (and (ge_437 x_125901 y_3187) (minus_458 z_2724 x_125901 y_3187) (div_437 r_654 z_2724 y_3187)) (div_437 (S_626 r_654) x_125901 y_3187))))
(assert (forall ((x_125901 Int) (y_3187 Int))
	(=> (lt_457 x_125901 y_3187) (mod_439 x_125901 x_125901 y_3187))))
(assert (forall ((x_125901 Int) (y_3187 Int) (r_654 Int) (z_2724 Int))
	(=> (and (ge_437 x_125901 y_3187) (minus_458 z_2724 x_125901 y_3187) (mod_439 r_654 z_2724 y_3187)) (mod_439 r_654 x_125901 y_3187))))
(declare-datatypes ((list_394 0)) (((nil_453) (cons_388 (head_776 Int) (tail_782 list_394)))))
(declare-fun diseqlist_388 (list_394 list_394) Bool)
(declare-fun head_777 (Int list_394) Bool)
(declare-fun tail_783 (list_394 list_394) Bool)
(declare-fun isnil_453 (list_394) Bool)
(declare-fun iscons_388 (list_394) Bool)
(assert (forall ((x_125911 Int) (x_125912 list_394))
	(head_777 x_125911 (cons_388 x_125911 x_125912))))
(assert (forall ((x_125911 Int) (x_125912 list_394))
	(tail_783 x_125912 (cons_388 x_125911 x_125912))))
(assert (isnil_453 nil_453))
(assert (forall ((x_125914 Int) (x_125915 list_394))
	(iscons_388 (cons_388 x_125914 x_125915))))
(assert (forall ((x_125916 Int) (x_125917 list_394))
	(diseqlist_388 nil_453 (cons_388 x_125916 x_125917))))
(assert (forall ((x_125918 Int) (x_125919 list_394))
	(diseqlist_388 (cons_388 x_125918 x_125919) nil_453)))
(assert (forall ((x_125920 Int) (x_125921 list_394) (x_125922 Int) (x_125923 list_394))
	(=> (diseqInt x_125920 x_125922) (diseqlist_388 (cons_388 x_125920 x_125921) (cons_388 x_125922 x_125923)))))
(assert (forall ((x_125920 Int) (x_125921 list_394) (x_125922 Int) (x_125923 list_394))
	(=> (diseqlist_388 x_125921 x_125923) (diseqlist_388 (cons_388 x_125920 x_125921) (cons_388 x_125922 x_125923)))))
(declare-fun merge_0 (list_394 list_394 list_394) Bool)
(assert (forall ((x_125890 list_394) (y_3186 Int) (ys_242 list_394) (z_2722 Int) (xs_886 list_394))
	(=> (and (le_437 z_2722 y_3186) (merge_0 x_125890 xs_886 (cons_388 y_3186 ys_242))) (merge_0 (cons_388 z_2722 x_125890) (cons_388 z_2722 xs_886) (cons_388 y_3186 ys_242)))))
(assert (forall ((x_125892 list_394) (y_3186 Int) (ys_242 list_394) (z_2722 Int) (xs_886 list_394))
	(=> (and (gt_440 z_2722 y_3186) (merge_0 x_125892 (cons_388 z_2722 xs_886) ys_242)) (merge_0 (cons_388 y_3186 x_125892) (cons_388 z_2722 xs_886) (cons_388 y_3186 ys_242)))))
(assert (forall ((z_2722 Int) (xs_886 list_394))
	(merge_0 (cons_388 z_2722 xs_886) (cons_388 z_2722 xs_886) nil_453)))
(assert (forall ((x_125894 list_394))
	(merge_0 x_125894 nil_453 x_125894)))
(assert (forall ((x_125899 list_394) (x_125897 list_394) (x_125895 list_394) (x_125896 list_394) (xs_887 list_394) (ys_243 list_394) (zs_75 list_394))
	(=> (and true (diseqlist_388 x_125895 x_125896) (merge_0 x_125899 xs_887 ys_243) (merge_0 x_125899 ys_243 xs_887) (merge_0 x_125897 xs_887 zs_75) (merge_0 x_125897 zs_75 xs_887) (merge_0 x_125895 ys_243 zs_75) (merge_0 x_125896 zs_75 ys_243)) false)))
(check-sat)
